c description: Random 3-CNF over 5 variables and 25 clauses
c generator: CNFgen (0.9.0)
c copyright: (C) 2012-2020 Massimo Lauria <massimo.lauria@uniroma1.it>
c url: https://massimolauria.net/cnfgen
c command line: cnfgen -o 3SAT_n_5_c_25 randkcnf 3 5 25
c
p cnf 5 25
2 -3 4 0
2 4 -5 0
-1 2 5 0
-1 3 5 0
-3 -4 -5 0
1 2 3 0
2 -3 -5 0
-3 4 -5 0
1 2 5 0
1 -2 4 0
3 4 -5 0
-1 -4 -5 0
1 2 4 0
-2 3 5 0
-1 4 5 0
1 -2 -3 0
2 -3 5 0
1 4 5 0
1 3 -5 0
1 3 5 0
-1 -3 -4 0
-1 -2 -5 0
2 4 5 0
-1 4 -5 0
-1 -2 4 0
